evaluation/soft-queens-weighted.ozn
output (([show(satisfied)++"; "]++[show(queens)])++[if j==1 then "\n" else "" endif++if fix(queens[i])==j then "Q" else "#" endif | i in 1..n, j in 1..n, ])++["\n"];
int: n = 8;
array [1..n] of int: queens;
set of int: SOFTCONSTRAINTS = 1..3;
array [SOFTCONSTRAINTS] of bool: satisfied;
